NAME combustion_srl_ilp
* Max problem is converted into Min one
ROWS
 N  OBJ
 L  constraint1_3244
 L  constraint1_3243
 L  constraint1_3241
 L  constraint1_3240
 L  constraint1_3245
 L  constraint1_3242
 L  constraint1_3260
 L  constraint1_520
 L  constraint2_3240
 L  constraint2_3241
 L  constraint2_3242
 L  constraint2_3243
 L  constraint2_4210
 L  constraint2_4211
 L  constraint2_4212
 L  constraint2_4213
 L  constraint2_6230
 L  constraint2_6231
 L  constraint2_6232
 L  constraint2_6233
 L  constraint2_3260
 L  constraint2_3261
 L  constraint2_3262
 L  constraint2_3263
 L  constraint2_520
 L  constraint2_521
 L  constraint2_522
 L  constraint2_523
COLUMNS
    MARKER    'MARKER'                 'INTORG'
    Z_324_4_0  OBJ       -5.7943275153657953e-03
    Z_324_4_0  constraint1_3244  1
    Z_324_4_0  constraint2_3240  1
    Z_324_4_1  OBJ       -8.6814276475495871e-03
    Z_324_4_1  constraint1_3244  1
    Z_324_4_1  constraint2_3241  1
    Z_324_4_2  OBJ       -6.7667303828802788e-02
    Z_324_4_2  constraint1_3244  1
    Z_324_4_2  constraint2_3242  1
    Z_324_4_3  OBJ       -2.5108723211367371e-02
    Z_324_4_3  constraint1_3244  1
    Z_324_4_3  constraint2_3243  1
    Z_324_4_4  OBJ       -7.9274821779691440e-01
    Z_324_4_4  constraint1_3244  1
    Z_324_3_0  OBJ       -6.6622030053933891e-03
    Z_324_3_0  constraint1_3243  1
    Z_324_3_0  constraint2_3240  1
    Z_324_3_1  OBJ       -1.2673062461932890e-02
    Z_324_3_1  constraint1_3243  1
    Z_324_3_1  constraint2_3241  1
    Z_324_3_2  OBJ       -1.2809333212406339e-03
    Z_324_3_2  constraint1_3243  1
    Z_324_3_2  constraint2_3242  1
    Z_324_3_3  OBJ       -5.4140942648902712e-01
    Z_324_3_3  constraint1_3243  1
    Z_324_3_3  constraint2_3243  1
    Z_324_3_4  OBJ       -3.3797437472240605e-01
    Z_324_3_4  constraint1_3243  1
    Z_324_1_0  OBJ       -2.0923025907400431e-03
    Z_324_1_0  constraint1_3241  1
    Z_324_1_0  constraint2_3240  1
    Z_324_1_1  OBJ       -4.2200893125687450e-03
    Z_324_1_1  constraint1_3241  1
    Z_324_1_1  constraint2_3241  1
    Z_324_1_2  OBJ       -2.2942902849123039e-03
    Z_324_1_2  constraint1_3241  1
    Z_324_1_2  constraint2_3242  1
    Z_324_1_3  OBJ       -2.4195334363814290e-02
    Z_324_1_3  constraint1_3241  1
    Z_324_1_3  constraint2_3243  1
    Z_324_1_4  OBJ       -8.6719798344796462e-01
    Z_324_1_4  constraint1_3241  1
    Z_324_0_0  OBJ       -5.3975868761694569e-04
    Z_324_0_0  constraint1_3240  1
    Z_324_0_0  constraint2_3240  1
    Z_324_0_1  OBJ       -3.0457226694245232e-04
    Z_324_0_1  constraint1_3240  1
    Z_324_0_1  constraint2_3241  1
    Z_324_0_2  OBJ       -7.4128995000418635e-03
    Z_324_0_2  constraint1_3240  1
    Z_324_0_2  constraint2_3242  1
    Z_324_0_3  OBJ       -8.5845534190374453e-03
    Z_324_0_3  constraint1_3240  1
    Z_324_0_3  constraint2_3243  1
    Z_324_0_4  OBJ       -8.8315821612636136e-01
    Z_324_0_4  constraint1_3240  1
    Z_324_5_0  OBJ       -6.6622030053933891e-03
    Z_324_5_0  constraint1_3245  1
    Z_324_5_0  constraint2_3240  1
    Z_324_5_1  OBJ       -1.2673062461932890e-02
    Z_324_5_1  constraint1_3245  1
    Z_324_5_1  constraint2_3241  1
    Z_324_5_2  OBJ       -1.2809333212406339e-03
    Z_324_5_2  constraint1_3245  1
    Z_324_5_2  constraint2_3242  1
    Z_324_5_3  OBJ       -5.4140942648902712e-01
    Z_324_5_3  constraint1_3245  1
    Z_324_5_3  constraint2_3243  1
    Z_324_5_4  OBJ       -3.3797437472240605e-01
    Z_324_5_4  constraint1_3245  1
    Z_324_2_0  OBJ       -3.0474258242447864e-03
    Z_324_2_0  constraint1_3242  1
    Z_324_2_0  constraint2_3240  1
    Z_324_2_1  OBJ       -7.8249580124774912e-02
    Z_324_2_1  constraint1_3242  1
    Z_324_2_1  constraint2_3241  1
    Z_324_2_2  OBJ       -1.3824583734993292e-02
    Z_324_2_2  constraint1_3242  1
    Z_324_2_2  constraint2_3242  1
    Z_324_2_3  OBJ       -6.6753192940642858e-02
    Z_324_2_3  constraint1_3242  1
    Z_324_2_3  constraint2_3243  1
    Z_324_2_4  OBJ       -7.3812521737534420e-01
    Z_324_2_4  constraint1_3242  1
    Z_326_0_0  OBJ       -2.4064591284799933e-01
    Z_326_0_0  constraint1_3260  1
    Z_326_0_0  constraint2_3260  1
    Z_326_0_1  OBJ       -5.6026215972870230e-01
    Z_326_0_1  constraint1_3260  1
    Z_326_0_1  constraint2_3261  1
    Z_326_0_2  OBJ       -2.6308332064951981e-03
    Z_326_0_2  constraint1_3260  1
    Z_326_0_2  constraint2_3262  1
    Z_326_0_3  OBJ       -2.2630256822544608e-04
    Z_326_0_3  constraint1_3260  1
    Z_326_0_3  constraint2_3263  1
    Z_326_0_4  OBJ       -9.6234791648577622e-02
    Z_326_0_4  constraint1_3260  1
    Z_52_0_0  OBJ       -1.3410689878116727e-02
    Z_52_0_0  constraint1_520  1
    Z_52_0_0  constraint2_520  1
    Z_52_0_1  OBJ       -5.3421545511769197e-01
    Z_52_0_1  constraint1_520  1
    Z_52_0_1  constraint2_521  1
    Z_52_0_2  OBJ       -1.0960035072574127e-02
    Z_52_0_2  constraint1_520  1
    Z_52_0_2  constraint2_522  1
    Z_52_0_3  OBJ       -2.3043222036163606e-04
    Z_52_0_3  constraint1_520  1
    Z_52_0_3  constraint2_523  1
    Z_52_0_4  OBJ       -3.4118338771125550e-01
    Z_52_0_4  constraint1_520  1
    MARKER    'MARKER'                 'INTEND'
RHS
    RHS1      constraint1_3244  1
    RHS1      constraint1_3243  1
    RHS1      constraint1_3241  1
    RHS1      constraint1_3240  1
    RHS1      constraint1_3245  1
    RHS1      constraint1_3242  1
    RHS1      constraint1_3260  1
    RHS1      constraint1_520  1
    RHS1      constraint2_3240  1
    RHS1      constraint2_3241  1
    RHS1      constraint2_3242  1
    RHS1      constraint2_3243  1
    RHS1      constraint2_4210  1
    RHS1      constraint2_4211  1
    RHS1      constraint2_4212  1
    RHS1      constraint2_4213  1
    RHS1      constraint2_6230  1
    RHS1      constraint2_6231  1
    RHS1      constraint2_6232  1
    RHS1      constraint2_6233  1
    RHS1      constraint2_3260  1
    RHS1      constraint2_3261  1
    RHS1      constraint2_3262  1
    RHS1      constraint2_3263  1
    RHS1      constraint2_520  1
    RHS1      constraint2_521  1
    RHS1      constraint2_522  1
    RHS1      constraint2_523  1
BOUNDS
 UP BND1      Z_324_4_0  1
 UP BND1      Z_324_4_1  1
 UP BND1      Z_324_4_2  1
 UP BND1      Z_324_4_3  1
 UP BND1      Z_324_4_4  1
 UP BND1      Z_324_3_0  1
 UP BND1      Z_324_3_1  1
 UP BND1      Z_324_3_2  1
 UP BND1      Z_324_3_3  1
 UP BND1      Z_324_3_4  1
 UP BND1      Z_324_1_0  1
 UP BND1      Z_324_1_1  1
 UP BND1      Z_324_1_2  1
 UP BND1      Z_324_1_3  1
 UP BND1      Z_324_1_4  1
 UP BND1      Z_324_0_0  1
 UP BND1      Z_324_0_1  1
 UP BND1      Z_324_0_2  1
 UP BND1      Z_324_0_3  1
 UP BND1      Z_324_0_4  1
 UP BND1      Z_324_5_0  1
 UP BND1      Z_324_5_1  1
 UP BND1      Z_324_5_2  1
 UP BND1      Z_324_5_3  1
 UP BND1      Z_324_5_4  1
 UP BND1      Z_324_2_0  1
 UP BND1      Z_324_2_1  1
 UP BND1      Z_324_2_2  1
 UP BND1      Z_324_2_3  1
 UP BND1      Z_324_2_4  1
 UP BND1      Z_326_0_0  1
 UP BND1      Z_326_0_1  1
 UP BND1      Z_326_0_2  1
 UP BND1      Z_326_0_3  1
 UP BND1      Z_326_0_4  1
 UP BND1      Z_52_0_0  1
 UP BND1      Z_52_0_1  1
 UP BND1      Z_52_0_2  1
 UP BND1      Z_52_0_3  1
 UP BND1      Z_52_0_4  1
QUADOBJ
    Z_324_3_0  Z_326_0_0  -3.6004053537456233e-02
    Z_324_3_0  Z_52_0_0  -2.8437654607281096e-05
    Z_324_3_1  Z_326_0_1  -3.6004053537456233e-02
    Z_324_3_1  Z_52_0_1  -2.8437654607281096e-05
    Z_324_3_2  Z_326_0_2  -3.6004053537456233e-02
    Z_324_3_2  Z_52_0_2  -2.8437654607281096e-05
    Z_324_3_3  Z_326_0_3  -3.6004053537456233e-02
    Z_324_3_3  Z_52_0_3  -2.8437654607281096e-05
    Z_324_3_4  Z_326_0_4  -3.6004053537456233e-02
    Z_324_3_4  Z_52_0_4  -2.8437654607281096e-05
    Z_324_1_0  Z_326_0_0  -3.6004053537456233e-02
    Z_324_1_1  Z_326_0_1  -3.6004053537456233e-02
    Z_324_1_2  Z_326_0_2  -3.6004053537456233e-02
    Z_324_1_3  Z_326_0_3  -3.6004053537456233e-02
    Z_324_1_4  Z_326_0_4  -3.6004053537456233e-02
    Z_324_5_0  Z_326_0_0  -3.1277233210319215e-02
    Z_324_5_0  Z_52_0_0  -2.8437654607281096e-05
    Z_324_5_1  Z_326_0_1  -3.1277233210319215e-02
    Z_324_5_1  Z_52_0_1  -2.8437654607281096e-05
    Z_324_5_2  Z_326_0_2  -3.1277233210319215e-02
    Z_324_5_2  Z_52_0_2  -2.8437654607281096e-05
    Z_324_5_3  Z_326_0_3  -3.1277233210319215e-02
    Z_324_5_3  Z_52_0_3  -2.8437654607281096e-05
    Z_324_5_4  Z_326_0_4  -3.1277233210319215e-02
    Z_324_5_4  Z_52_0_4  -2.8437654607281096e-05
    Z_324_2_0  Z_326_0_0  -3.6372654260075276e-03
    Z_324_2_1  Z_326_0_1  -3.6372654260075276e-03
    Z_324_2_2  Z_326_0_2  -3.6372654260075276e-03
    Z_324_2_3  Z_326_0_3  -3.6372654260075276e-03
    Z_324_2_4  Z_326_0_4  -3.6372654260075276e-03
    Z_326_0_0  Z_52_0_0  -2.9986050903144306e-02
    Z_326_0_1  Z_52_0_1  -2.9986050903144306e-02
    Z_326_0_2  Z_52_0_2  -2.9986050903144306e-02
    Z_326_0_3  Z_52_0_3  -2.9986050903144306e-02
    Z_326_0_4  Z_52_0_4  -2.9986050903144306e-02
ENDATA
